pair_style mlip mlip.ini 
pair_coeff * *

thermo		1
thermo_style custom step temp pe press pxx pyy pzz pxy pxz pyz lx ly lz vol
